letting n =  10
letting blocks =  [[1, 1], [1, 2], [1, 3], [1, 4], [1, 7], [1, 8], [2, 1], [2, 2], [2, 8], [3, 3], [3, 4], [4, 2], [4, 3], [5, 2], [5, 4], [5, 7], [6, 6], [6, 7], [7, 5], [7, 6], [7, 8], [7, 9], [7, 10], [8, 1], [8, 2], [8, 4], [8, 7], [10, 4], [10, 7], [10, 8]]
